Ti2N                                    
   1.00000000000000     
     2.9676241207627605    0.0000000000000000    0.0000000000000000
    -1.4838120603813802    2.5700378771145065    0.0000000000000000
     0.0000000000000000    0.0000000000000000   12.8597045233052967
   Ti   N 
     2     1
Selective dynamics
Direct
  0.0000000000000000  0.0000000000000000  0.0255545230576766   T   T   T
  0.6666666666666643  0.3333333333333357  0.2051143967954962   T   T   T
  0.3333333333333357  0.6666666666666643  0.1153310801468237   T   T   T
 
  0.00000000E+00  0.00000000E+00  0.00000000E+00
  0.00000000E+00  0.00000000E+00  0.00000000E+00
  0.00000000E+00  0.00000000E+00  0.00000000E+00
