Y2NO2
   1.00000000000000
     3.6402684837969894    0.0000000000000053    -0.0000000000000033
    -1.8201342418984947    3.1525649836302172    0.0000000000000050
     -0.0000000000000077    0.0000000000000167   14.4921033926153644
  Y N O 
  2 1 2 
Selective Dynamics
Direct
  0.0000000000000000  0.0000000000000001  0.0457781638616327   T   T   T
  0.6666666666666643  0.3333333333333357  0.2641908772717874   T   T   T
  0.3333333333333357  0.6666666666666643  0.1549845205667115   T   T   T
  0.6666666666666643  0.3333333333333358  0.0000000000000000   T   T   T
  0.0000000000000000  -0.0000000000000001  0.3099690411334198   T   T   T

  0.00000000E+00  0.00000000E+00  0.00000000E+00
  0.00000000E+00  0.00000000E+00  0.00000000E+00
  0.00000000E+00  0.00000000E+00  0.00000000E+00
  0.00000000E+00  0.00000000E+00  0.00000000E+00
  0.00000000E+00  0.00000000E+00  0.00000000E+00
